adpp_gurobi/instances/gcut2_adpp.txt
20
5	5
2	2	0	1	319
2	3	0	1	502
1	1	0	1	129
2	1	0	1	150
1	1	0	1	112
2	1	0	1	261
1	3	0	1	318
2	3	0	1	461
1	3	0	1	249
3	1	0	1	220
1	2	0	1	257
3	2	0	1	359
2	1	0	1	212
2	2	0	1	305
2	3	0	1	419
3	1	0	1	282
2	1	0	1	183
2	3	0	1	382
1	1	0	1	127
3	1	0	1	235
